letting n =  10
letting blocks =  [[1, 9], [2, 1], [3, 6], [3, 7], [3, 10], [4, 9], [4, 10], [5, 2], [5, 3], [5, 6], [5, 9], [6, 1], [6, 2], [6, 5], [6, 8], [7, 1], [7, 6], [7, 9], [8, 1], [8, 6], [9, 2], [9, 7], [9, 8], [10, 2]]
